
  22   10
  10   10   10   10   10   10   10   10   10   10

   0   0   0   0   0   0   0   0   0   0   0   6 2 3 4 9 10 16 
   9  10  10  10  10  10  10  10  10  10  10   4 13 12 6 5 
   8  10  10  10  10  10  10  10  10  10  10   4 13 12 7 6 
   3  10  10  10  10  10  10  10  10  10  10   3 13 8 5 
   2  10  10  10  10  10  10  10  10  10  10   4 21 20 15 7 
   9  10  10  10  10  10  10  10  10  10  10   4 21 18 15 14 
   9  10  10  10  10  10  10  10  10  10  10   2 19 11 
   8  10  10  10  10  10  10  10  10  10  10   2 21 11 
   8  10  10  10  10  10  10  10  10  10  10   2 20 11 
   6  10  10  10  10  10  10  10  10  10  10   3 18 17 15 
   3  10  10  10  10  10  10  10  10  10  10   2 18 14 
   7  10  10  10  10  10  10  10  10  10  10   2 18 14 
   9  10  10  10  10  10  10  10  10  10  10   2 20 17 
   2  10  10  10  10  10  10  10  10  10  10   1 17 
  10  10  10  10  10  10  10  10  10  10  10   1 19 
   4  10  10  10  10  10  10  10  10  10  10   1 19 
   8  10  10  10  10  10  10  10  10  10  10   1 22
  10  10  10  10  10  10  10  10  10  10  10   1 22
   6  10  10  10  10  10  10  10  10  10  10   1 22
   6  10  10  10  10  10  10  10  10  10  10   1 22
   5  10  10  10  10  10  10  10  10  10  10   1 22
   0   0   0   0   0   0   0   0   0   0   0   0 
